\ Model UnassignedDistance
\ LP format - for model browsing. Use MPS format to capture full model detail.
Minimize
  z_0_1_0 + z_0_1_1 + z_0_1_2 + z_0_1_3 + z_0_1_4 + z_0_1_5 + z_0_2_0
   + z_0_2_1 + z_0_2_2 + z_0_2_3 + z_0_2_4 + z_0_2_5 + z_0_3_0 + z_0_3_1
   + z_0_3_2 + z_0_3_3 + z_0_3_4 + z_0_3_5 + z_1_2_0 + z_1_2_1 + z_1_2_2
   + z_1_2_3 + z_1_2_4 + z_1_2_5 + z_1_3_0 + z_1_3_1 + z_1_3_2 + z_1_3_3
   + z_1_3_4 + z_1_3_5 + z_2_3_0 + z_2_3_1 + z_2_3_2 + z_2_3_3 + z_2_3_4
   + z_2_3_5 - 13.4212 Constant
Subject To
 R0: - 3.8724 a_0_1_0 + z_0_1_0 <= 0
 R1: 3.8724 a_0_1_0 + z_0_1_0 <= 5.4724
 R2: - 3.8724 a_0_1_0 + z_0_1_0 >= -2.4724
 R3: - 3.8724 a_0_1_1 + z_0_1_1 <= 0
 R4: 3.8724 a_0_1_1 + z_0_1_1 <= 5.4724
 R5: - 3.8724 a_0_1_1 + z_0_1_1 >= -2.4724
 R6: - 3.8724 a_0_1_2 + z_0_1_2 <= 0
 R7: 3.8724 a_0_1_2 + z_0_1_2 <= 5.4724
 R8: - 3.8724 a_0_1_2 + z_0_1_2 >= -2.4724
 R9: - 3.8724 a_0_1_3 + z_0_1_3 <= 0
 R10: 3.8724 a_0_1_3 + z_0_1_3 <= 6.4968
 R11: - 3.8724 a_0_1_3 + z_0_1_3 >= -1.448
 R12: - 3.8724 a_0_1_4 + z_0_1_4 <= 0
 R13: 3.8724 a_0_1_4 + z_0_1_4 <= 6.4968
 R14: - 3.8724 a_0_1_4 + z_0_1_4 >= -1.448
 R15: - 3.8724 a_0_1_5 + z_0_1_5 <= 0
 R16: 3.8724 a_0_1_5 + z_0_1_5 <= 7.8448
 R17: - 3.8724 a_0_1_5 + z_0_1_5 >= -0.1
 R18: - 3.8724 a_0_2_0 + z_0_2_0 <= 0
 R19: 3.8724 a_0_2_0 + z_0_2_0 <= 5.4724
 R20: - 3.8724 a_0_2_0 + z_0_2_0 >= -2.4724
 R21: - 3.8724 a_0_2_1 + z_0_2_1 <= 0
 R22: 3.8724 a_0_2_1 + z_0_2_1 <= 5.4724
 R23: - 3.8724 a_0_2_1 + z_0_2_1 >= -2.4724
 R24: - 3.8724 a_0_2_2 + z_0_2_2 <= 0
 R25: 3.8724 a_0_2_2 + z_0_2_2 <= 5.4724
 R26: - 3.8724 a_0_2_2 + z_0_2_2 >= -2.4724
 R27: - 3.8724 a_0_2_3 + z_0_2_3 <= 0
 R28: 3.8724 a_0_2_3 + z_0_2_3 <= 6.4968
 R29: - 3.8724 a_0_2_3 + z_0_2_3 >= -1.448
 R30: - 3.8724 a_0_2_4 + z_0_2_4 <= 0
 R31: 3.8724 a_0_2_4 + z_0_2_4 <= 6.4968
 R32: - 3.8724 a_0_2_4 + z_0_2_4 >= -1.448
 R33: - 3.8724 a_0_2_5 + z_0_2_5 <= 0
 R34: 3.8724 a_0_2_5 + z_0_2_5 <= 7.8448
 R35: - 3.8724 a_0_2_5 + z_0_2_5 >= -0.1
 R36: - 3.8724 a_0_3_0 + z_0_3_0 <= 0
 R37: 3.8724 a_0_3_0 + z_0_3_0 <= 5.4724
 R38: - 3.8724 a_0_3_0 + z_0_3_0 >= -2.4724
 R39: - 3.8724 a_0_3_1 + z_0_3_1 <= 0
 R40: 3.8724 a_0_3_1 + z_0_3_1 <= 5.4724
 R41: - 3.8724 a_0_3_1 + z_0_3_1 >= -2.4724
 R42: - 3.8724 a_0_3_2 + z_0_3_2 <= 0
 R43: 3.8724 a_0_3_2 + z_0_3_2 <= 5.4724
 R44: - 3.8724 a_0_3_2 + z_0_3_2 >= -2.4724
 R45: - 3.8724 a_0_3_3 + z_0_3_3 <= 0
 R46: 3.8724 a_0_3_3 + z_0_3_3 <= 6.4968
 R47: - 3.8724 a_0_3_3 + z_0_3_3 >= -1.448
 R48: - 3.8724 a_0_3_4 + z_0_3_4 <= 0
 R49: 3.8724 a_0_3_4 + z_0_3_4 <= 6.4968
 R50: - 3.8724 a_0_3_4 + z_0_3_4 >= -1.448
 R51: - 3.8724 a_0_3_5 + z_0_3_5 <= 0
 R52: 3.8724 a_0_3_5 + z_0_3_5 <= 7.8448
 R53: - 3.8724 a_0_3_5 + z_0_3_5 >= -0.1
 R54: - 3.8724 a_1_2_0 + z_1_2_0 <= 0
 R55: 3.8724 a_1_2_0 + z_1_2_0 <= 5.4724
 R56: - 3.8724 a_1_2_0 + z_1_2_0 >= -2.4724
 R57: - 3.8724 a_1_2_1 + z_1_2_1 <= 0
 R58: 3.8724 a_1_2_1 + z_1_2_1 <= 5.4724
 R59: - 3.8724 a_1_2_1 + z_1_2_1 >= -2.4724
 R60: - 3.8724 a_1_2_2 + z_1_2_2 <= 0
 R61: 3.8724 a_1_2_2 + z_1_2_2 <= 5.4724
 R62: - 3.8724 a_1_2_2 + z_1_2_2 >= -2.4724
 R63: - 3.8724 a_1_2_3 + z_1_2_3 <= 0
 R64: 3.8724 a_1_2_3 + z_1_2_3 <= 6.4968
 R65: - 3.8724 a_1_2_3 + z_1_2_3 >= -1.448
 R66: - 3.8724 a_1_2_4 + z_1_2_4 <= 0
 R67: 3.8724 a_1_2_4 + z_1_2_4 <= 6.4968
 R68: - 3.8724 a_1_2_4 + z_1_2_4 >= -1.448
 R69: - 3.8724 a_1_2_5 + z_1_2_5 <= 0
 R70: 3.8724 a_1_2_5 + z_1_2_5 <= 7.8448
 R71: - 3.8724 a_1_2_5 + z_1_2_5 >= -0.1
 R72: - 3.8724 a_1_3_0 + z_1_3_0 <= 0
 R73: 3.8724 a_1_3_0 + z_1_3_0 <= 5.4724
 R74: - 3.8724 a_1_3_0 + z_1_3_0 >= -2.4724
 R75: - 3.8724 a_1_3_1 + z_1_3_1 <= 0
 R76: 3.8724 a_1_3_1 + z_1_3_1 <= 5.4724
 R77: - 3.8724 a_1_3_1 + z_1_3_1 >= -2.4724
 R78: - 3.8724 a_1_3_2 + z_1_3_2 <= 0
 R79: 3.8724 a_1_3_2 + z_1_3_2 <= 5.4724
 R80: - 3.8724 a_1_3_2 + z_1_3_2 >= -2.4724
 R81: - 3.8724 a_1_3_3 + z_1_3_3 <= 0
 R82: 3.8724 a_1_3_3 + z_1_3_3 <= 6.4968
 R83: - 3.8724 a_1_3_3 + z_1_3_3 >= -1.448
 R84: - 3.8724 a_1_3_4 + z_1_3_4 <= 0
 R85: 3.8724 a_1_3_4 + z_1_3_4 <= 6.4968
 R86: - 3.8724 a_1_3_4 + z_1_3_4 >= -1.448
 R87: - 3.8724 a_1_3_5 + z_1_3_5 <= 0
 R88: 3.8724 a_1_3_5 + z_1_3_5 <= 7.8448
 R89: - 3.8724 a_1_3_5 + z_1_3_5 >= -0.1
 R90: - 3.8724 a_2_3_0 + z_2_3_0 <= 0
 R91: 3.8724 a_2_3_0 + z_2_3_0 <= 5.4724
 R92: - 3.8724 a_2_3_0 + z_2_3_0 >= -2.4724
 R93: - 3.8724 a_2_3_1 + z_2_3_1 <= 0
 R94: 3.8724 a_2_3_1 + z_2_3_1 <= 5.4724
 R95: - 3.8724 a_2_3_1 + z_2_3_1 >= -2.4724
 R96: - 3.8724 a_2_3_2 + z_2_3_2 <= 0
 R97: 3.8724 a_2_3_2 + z_2_3_2 <= 5.4724
 R98: - 3.8724 a_2_3_2 + z_2_3_2 >= -2.4724
 R99: - 3.8724 a_2_3_3 + z_2_3_3 <= 0
 R100: 3.8724 a_2_3_3 + z_2_3_3 <= 6.4968
 R101: - 3.8724 a_2_3_3 + z_2_3_3 >= -1.448
 R102: - 3.8724 a_2_3_4 + z_2_3_4 <= 0
 R103: 3.8724 a_2_3_4 + z_2_3_4 <= 6.4968
 R104: - 3.8724 a_2_3_4 + z_2_3_4 >= -1.448
 R105: - 3.8724 a_2_3_5 + z_2_3_5 <= 0
 R106: 3.8724 a_2_3_5 + z_2_3_5 <= 7.8448
 R107: - 3.8724 a_2_3_5 + z_2_3_5 >= -0.1
 R108: a_0_1_0 + a_0_2_0 + a_0_3_0 + a_1_2_0 + a_1_3_0 + a_2_3_0 = 1
 R109: a_0_1_1 + a_0_2_1 + a_0_3_1 + a_1_2_1 + a_1_3_1 + a_2_3_1 = 1
 R110: a_0_1_2 + a_0_2_2 + a_0_3_2 + a_1_2_2 + a_1_3_2 + a_2_3_2 = 1
 R111: a_0_1_3 + a_0_2_3 + a_0_3_3 + a_1_2_3 + a_1_3_3 + a_2_3_3 = 1
 R112: a_0_1_4 + a_0_2_4 + a_0_3_4 + a_1_2_4 + a_1_3_4 + a_2_3_4 = 1
 R113: a_0_1_5 + a_0_2_5 + a_0_3_5 + a_1_2_5 + a_1_3_5 + a_2_3_5 = 1
 R114: a_0_1_0 + a_0_1_1 + a_0_1_2 + a_0_1_3 + a_0_1_4 + a_0_1_5 <= 1
 R115: a_0_2_0 + a_0_2_1 + a_0_2_2 + a_0_2_3 + a_0_2_4 + a_0_2_5 <= 1
 R116: a_0_3_0 + a_0_3_1 + a_0_3_2 + a_0_3_3 + a_0_3_4 + a_0_3_5 <= 1
 R117: a_1_2_0 + a_1_2_1 + a_1_2_2 + a_1_2_3 + a_1_2_4 + a_1_2_5 <= 1
 R118: a_1_3_0 + a_1_3_1 + a_1_3_2 + a_1_3_3 + a_1_3_4 + a_1_3_5 <= 1
 R119: a_2_3_0 + a_2_3_1 + a_2_3_2 + a_2_3_3 + a_2_3_4 + a_2_3_5 <= 1
 w_0_1: [ - x_0_0 ^2 + 2 x_0_0 * x_1_0 - x_0_1 ^2 + 2 x_0_1 * x_1_1
   - x_0_2 ^2 + 2 x_0_2 * x_1_2 - x_1_0 ^2 - x_1_1 ^2 - x_1_2 ^2 + w_0_1 ^2
   ] = 0
 qc1: [ - a_0_1_0 * w_0_1 + z_0_1_0 ^2 ] = 0
 qc2: [ - a_0_1_1 * w_0_1 + z_0_1_1 ^2 ] = 0
 qc3: [ - a_0_1_2 * w_0_1 + z_0_1_2 ^2 ] = 0
 qc4: [ - a_0_1_3 * w_0_1 + z_0_1_3 ^2 ] = 0
 qc5: [ - a_0_1_4 * w_0_1 + z_0_1_4 ^2 ] = 0
 qc6: [ - a_0_1_5 * w_0_1 + z_0_1_5 ^2 ] = 0
 w_0_2: [ - x_0_0 ^2 + 2 x_0_0 * x_2_0 - x_0_1 ^2 + 2 x_0_1 * x_2_1
   - x_0_2 ^2 + 2 x_0_2 * x_2_2 - x_2_0 ^2 - x_2_1 ^2 - x_2_2 ^2 + w_0_2 ^2
   ] = 0
 qc8: [ - a_0_2_0 * w_0_2 + z_0_2_0 ^2 ] = 0
 qc9: [ - a_0_2_1 * w_0_2 + z_0_2_1 ^2 ] = 0
 qc10: [ - a_0_2_2 * w_0_2 + z_0_2_2 ^2 ] = 0
 qc11: [ - a_0_2_3 * w_0_2 + z_0_2_3 ^2 ] = 0
 qc12: [ - a_0_2_4 * w_0_2 + z_0_2_4 ^2 ] = 0
 qc13: [ - a_0_2_5 * w_0_2 + z_0_2_5 ^2 ] = 0
 w_0_3: [ - x_0_0 ^2 + 2 x_0_0 * x_3_0 - x_0_1 ^2 + 2 x_0_1 * x_3_1
   - x_0_2 ^2 + 2 x_0_2 * x_3_2 - x_3_0 ^2 - x_3_1 ^2 - x_3_2 ^2 + w_0_3 ^2
   ] = 0
 qc15: [ - a_0_3_0 * w_0_3 + z_0_3_0 ^2 ] = 0
 qc16: [ - a_0_3_1 * w_0_3 + z_0_3_1 ^2 ] = 0
 qc17: [ - a_0_3_2 * w_0_3 + z_0_3_2 ^2 ] = 0
 qc18: [ - a_0_3_3 * w_0_3 + z_0_3_3 ^2 ] = 0
 qc19: [ - a_0_3_4 * w_0_3 + z_0_3_4 ^2 ] = 0
 qc20: [ - a_0_3_5 * w_0_3 + z_0_3_5 ^2 ] = 0
 w_1_2: [ - x_1_0 ^2 + 2 x_1_0 * x_2_0 - x_1_1 ^2 + 2 x_1_1 * x_2_1
   - x_1_2 ^2 + 2 x_1_2 * x_2_2 - x_2_0 ^2 - x_2_1 ^2 - x_2_2 ^2 + w_1_2 ^2
   ] = 0
 qc22: [ - a_1_2_0 * w_1_2 + z_1_2_0 ^2 ] = 0
 qc23: [ - a_1_2_1 * w_1_2 + z_1_2_1 ^2 ] = 0
 qc24: [ - a_1_2_2 * w_1_2 + z_1_2_2 ^2 ] = 0
 qc25: [ - a_1_2_3 * w_1_2 + z_1_2_3 ^2 ] = 0
 qc26: [ - a_1_2_4 * w_1_2 + z_1_2_4 ^2 ] = 0
 qc27: [ - a_1_2_5 * w_1_2 + z_1_2_5 ^2 ] = 0
 w_1_3: [ - x_1_0 ^2 + 2 x_1_0 * x_3_0 - x_1_1 ^2 + 2 x_1_1 * x_3_1
   - x_1_2 ^2 + 2 x_1_2 * x_3_2 - x_3_0 ^2 - x_3_1 ^2 - x_3_2 ^2 + w_1_3 ^2
   ] = 0
 qc29: [ - a_1_3_0 * w_1_3 + z_1_3_0 ^2 ] = 0
 qc30: [ - a_1_3_1 * w_1_3 + z_1_3_1 ^2 ] = 0
 qc31: [ - a_1_3_2 * w_1_3 + z_1_3_2 ^2 ] = 0
 qc32: [ - a_1_3_3 * w_1_3 + z_1_3_3 ^2 ] = 0
 qc33: [ - a_1_3_4 * w_1_3 + z_1_3_4 ^2 ] = 0
 qc34: [ - a_1_3_5 * w_1_3 + z_1_3_5 ^2 ] = 0
 w_2_3: [ - x_2_0 ^2 + 2 x_2_0 * x_3_0 - x_2_1 ^2 + 2 x_2_1 * x_3_1
   - x_2_2 ^2 + 2 x_2_2 * x_3_2 - x_3_0 ^2 - x_3_1 ^2 - x_3_2 ^2 + w_2_3 ^2
   ] = 0
 qc36: [ - a_2_3_0 * w_2_3 + z_2_3_0 ^2 ] = 0
 qc37: [ - a_2_3_1 * w_2_3 + z_2_3_1 ^2 ] = 0
 qc38: [ - a_2_3_2 * w_2_3 + z_2_3_2 ^2 ] = 0
 qc39: [ - a_2_3_3 * w_2_3 + z_2_3_3 ^2 ] = 0
 qc40: [ - a_2_3_4 * w_2_3 + z_2_3_4 ^2 ] = 0
 qc41: [ - a_2_3_5 * w_2_3 + z_2_3_5 ^2 ] = 0
Bounds
 Constant = 1
Binaries
 a_0_1_0 a_0_1_1 a_0_1_2 a_0_1_3 a_0_1_4 a_0_1_5 a_0_2_0 a_0_2_1 a_0_2_2
 a_0_2_3 a_0_2_4 a_0_2_5 a_0_3_0 a_0_3_1 a_0_3_2 a_0_3_3 a_0_3_4 a_0_3_5
 a_1_2_0 a_1_2_1 a_1_2_2 a_1_2_3 a_1_2_4 a_1_2_5 a_1_3_0 a_1_3_1 a_1_3_2
 a_1_3_3 a_1_3_4 a_1_3_5 a_2_3_0 a_2_3_1 a_2_3_2 a_2_3_3 a_2_3_4 a_2_3_5
End
